Model status
Time limit reached

# Primal solution values
Feasible
Objective 1
# Columns 34
s1 0
s2 0
s3 1
s4 0
x1 1
x2 1
x3 1
x4 0
x5 0
x6 1
x7 1
x8 1
x9 0
x10 0
x11 0
x12 0
x13 1
x14 1
x15 1
x16 1
x17 0
x18 0
x19 0
x20 0
x21 1
x22 0
x23 1
x24 0
x25 0
x26 1
x27 1
x28 0
x29 0
x30 0
# Rows 4
C1_ 786
C2_ 759
C3_ 888
C4_ 649

# Dual solution values
None

# Basis
HiGHS_basis_file v2
None
